#######################################
### Exact MIP solver for the HHCRSP ###
#######################################
-- Instance file: new-instances/HHCRSP_75_15_94_0.4_R_C.txt
-- Max threads: 4
-- Time limit: 999999 seconds
-- Use initial solution: No
Trivial flow violations prevented generating 18453 variables.
Model exported.
Version identifier: 20.1.0.0 | 2020-11-10 | 9bedb6d68
CPXPARAM_Threads                                 4
CPXPARAM_TimeLimit                               999999
Parallel mode: deterministic, using up to 4 threads for concurrent optimization:
 * Starting dual Simplex on 1 thread...
 * Starting Barrier on 3 threads...
Tried aggregator 1 time.
LP Presolve eliminated 2700 rows and 606 columns.
Reduced LP has 18374 rows, 17757 columns, and 171192 nonzeros.
Presolve time = 0.08 sec. (47.65 ticks)
Symmetry aggregator did 15435 additional substitutions.

Iteration log . . .
Iteration:     1   Dual objective     =             0.000000
Iteration:   329   Dual objective     =           160.334820

Dual crossover.
  Dual:  Fixing 175 variables.
      174 DMoves:  Infeasibility  9.28146758e-14  Objective  1.60339727e+02
        0 DMoves:  Infeasibility  3.85247631e-14  Objective  1.60339727e+02
  Dual:  Pushed 17, exchanged 158.
  Primal:  Fixing 52 variables.
       51 PMoves:  Infeasibility  4.44089210e-16  Objective  1.60339727e+02
        0 PMoves:  Infeasibility  5.55111512e-16  Objective  1.60339727e+02
  Primal:  Pushed 30, exchanged 22.

Dual simplex solved model.


Solution status from MIP model:
-- Processing time: 0.161 sec.
-- Memory used: 82.5596 MB
-- Best bound: inf
-- Obj value: 160.34
-- Gap: inf%
-- Total distance: 481.019
-- Total tardiness: 0
-- Largest tardiness: 0
